\* FoodManufacture1 *\
Maximize
OBJ: 150 PROD_0 + 150 PROD_1 + 150 PROD_2 + 150 PROD_3 + 150 PROD_4
 + 150 PROD_5 - 5 STORED_VEG_0_0 - 5 STORED_VEG_0_1 - 5 STORED_VEG_0_2
 - 5 STORED_VEG_0_3 - 5 STORED_VEG_0_4 - 5 STORED_VEG_1_0 - 5 STORED_VEG_1_1
 - 5 STORED_VEG_1_2 - 5 STORED_VEG_1_3 - 5 STORED_VEG_1_4 - 5 STORED_VEG_2_0
 - 5 STORED_VEG_2_1 - 5 STORED_VEG_2_2 - 5 STORED_VEG_2_3 - 5 STORED_VEG_2_4
 - 5 STORED_VEG_3_0 - 5 STORED_VEG_3_1 - 5 STORED_VEG_3_2 - 5 STORED_VEG_3_3
 - 5 STORED_VEG_3_4 - 5 STORED_VEG_4_0 - 5 STORED_VEG_4_1 - 5 STORED_VEG_4_2
 - 5 STORED_VEG_4_3 - 5 STORED_VEG_4_4 - 110 VEG_0_0 - 120 VEG_0_1
 - 130 VEG_0_2 - 110 VEG_0_3 - 115 VEG_0_4 - 1.3 VEG_1_0 - 1.3 VEG_1_1
 - 1.1 VEG_1_2 - 90 VEG_1_3 - 115 VEG_1_4 - 110 VEG_2_0 - 140 VEG_2_1
 - 130 VEG_2_2 - 100 VEG_2_3 - 95 VEG_2_4 - 120 VEG_3_0 - 110 VEG_3_1
 - 120 VEG_3_2 - 120 VEG_3_3 - 125 VEG_3_4 - 100 VEG_4_0 - 120 VEG_4_1
 - 150 VEG_4_2 - 110 VEG_4_3 - 105 VEG_4_4 - 90 VEG_5_0 - 100 VEG_5_1
 - 140 VEG_5_2 - 80 VEG_5_3 - 135 VEG_5_4
Subject To
CapOil1: USED_VEG_0_2 + USED_VEG_0_3 + USED_VEG_0_4 <= 250
CapOil2: USED_VEG_1_2 + USED_VEG_1_3 + USED_VEG_1_4 <= 250
CapOil3: USED_VEG_2_2 + USED_VEG_2_3 + USED_VEG_2_4 <= 250
CapOil4: USED_VEG_3_2 + USED_VEG_3_3 + USED_VEG_3_4 <= 250
CapOil5: USED_VEG_4_2 + USED_VEG_4_3 + USED_VEG_4_4 <= 250
CapOil6: USED_VEG_5_2 + USED_VEG_5_3 + USED_VEG_5_4 <= 250
CapVeg1: USED_VEG_0_0 + USED_VEG_0_1 <= 200
CapVeg2: USED_VEG_1_0 + USED_VEG_1_1 <= 200
CapVeg3: USED_VEG_2_0 + USED_VEG_2_1 <= 200
CapVeg4: USED_VEG_3_0 + USED_VEG_3_1 <= 200
CapVeg5: USED_VEG_4_0 + USED_VEG_4_1 <= 200
CapVeg6: USED_VEG_5_0 + USED_VEG_5_1 <= 200
Continuit1: - PROD_0 + USED_VEG_0_0 + USED_VEG_0_1 + USED_VEG_0_2
 + USED_VEG_0_3 + USED_VEG_0_4 = 0
Continuit2: - PROD_1 + USED_VEG_1_0 + USED_VEG_1_1 + USED_VEG_1_2
 + USED_VEG_1_3 + USED_VEG_1_4 = 0
Continuit3: - PROD_2 + USED_VEG_2_0 + USED_VEG_2_1 + USED_VEG_2_2
 + USED_VEG_2_3 + USED_VEG_2_4 = 0
Continuit4: - PROD_3 + USED_VEG_3_0 + USED_VEG_3_1 + USED_VEG_3_2
 + USED_VEG_3_3 + USED_VEG_3_4 = 0
Continuit5: - PROD_4 + USED_VEG_4_0 + USED_VEG_4_1 + USED_VEG_4_2
 + USED_VEG_4_3 + USED_VEG_4_4 = 0
Continuit6: - PROD_5 + USED_VEG_5_0 + USED_VEG_5_1 + USED_VEG_5_2
 + USED_VEG_5_3 + USED_VEG_5_4 = 0
EndStorage_T1: STORED_VEG_4_0 - USED_VEG_5_0 + VEG_5_0 = 500
EndStorage_T2: STORED_VEG_4_1 - USED_VEG_5_1 + VEG_5_1 = 500
EndStorage_T3: STORED_VEG_4_2 - USED_VEG_5_2 + VEG_5_2 = 500
EndStorage_T4: STORED_VEG_4_3 - USED_VEG_5_3 + VEG_5_3 = 500
EndStorage_T5: STORED_VEG_4_4 - USED_VEG_5_4 + VEG_5_4 = 500
HardnessMax1: - 6 PROD_0 + 8.8 USED_VEG_0_0 + 6.1 USED_VEG_0_1
 + 2 USED_VEG_0_2 + 4.2 USED_VEG_0_3 + 5 USED_VEG_0_4 <= 0
HardnessMax2: - 6 PROD_1 + 8.8 USED_VEG_1_0 + 6.1 USED_VEG_1_1
 + 2 USED_VEG_1_2 + 4.2 USED_VEG_1_3 + 5 USED_VEG_1_4 <= 0
HardnessMax3: - 6 PROD_2 + 8.8 USED_VEG_2_0 + 6.1 USED_VEG_2_1
 + 2 USED_VEG_2_2 + 4.2 USED_VEG_2_3 + 5 USED_VEG_2_4 <= 0
HardnessMax4: - 6 PROD_3 + 8.8 USED_VEG_3_0 + 6.1 USED_VEG_3_1
 + 2 USED_VEG_3_2 + 4.2 USED_VEG_3_3 + 5 USED_VEG_3_4 <= 0
HardnessMax5: - 6 PROD_4 + 8.8 USED_VEG_4_0 + 6.1 USED_VEG_4_1
 + 2 USED_VEG_4_2 + 4.2 USED_VEG_4_3 + 5 USED_VEG_4_4 <= 0
HardnessMax6: - 6 PROD_5 + 8.8 USED_VEG_5_0 + 6.1 USED_VEG_5_1
 + 2 USED_VEG_5_2 + 4.2 USED_VEG_5_3 + 5 USED_VEG_5_4 <= 0
HardnessMin1: - 3 PROD_0 + 8.8 USED_VEG_0_0 + 6.1 USED_VEG_0_1
 + 2 USED_VEG_0_2 + 4.2 USED_VEG_0_3 + 5 USED_VEG_0_4 >= 0
HardnessMin2: - 3 PROD_1 + 8.8 USED_VEG_1_0 + 6.1 USED_VEG_1_1
 + 2 USED_VEG_1_2 + 4.2 USED_VEG_1_3 + 5 USED_VEG_1_4 >= 0
HardnessMin3: - 3 PROD_2 + 8.8 USED_VEG_2_0 + 6.1 USED_VEG_2_1
 + 2 USED_VEG_2_2 + 4.2 USED_VEG_2_3 + 5 USED_VEG_2_4 >= 0
HardnessMin4: - 3 PROD_3 + 8.8 USED_VEG_3_0 + 6.1 USED_VEG_3_1
 + 2 USED_VEG_3_2 + 4.2 USED_VEG_3_3 + 5 USED_VEG_3_4 >= 0
HardnessMin5: - 3 PROD_4 + 8.8 USED_VEG_4_0 + 6.1 USED_VEG_4_1
 + 2 USED_VEG_4_2 + 4.2 USED_VEG_4_3 + 5 USED_VEG_4_4 >= 0
HardnessMin6: - 3 PROD_5 + 8.8 USED_VEG_5_0 + 6.1 USED_VEG_5_1
 + 2 USED_VEG_5_2 + 4.2 USED_VEG_5_3 + 5 USED_VEG_5_4 >= 0
InitStorage_T1: STORED_VEG_0_0 + USED_VEG_0_0 - VEG_0_0 = 500
InitStorage_T2: STORED_VEG_0_1 + USED_VEG_0_1 - VEG_0_1 = 500
InitStorage_T3: STORED_VEG_0_2 + USED_VEG_0_2 - VEG_0_2 = 500
InitStorage_T4: STORED_VEG_0_3 + USED_VEG_0_3 - VEG_0_3 = 500
InitStorage_T5: STORED_VEG_0_4 + USED_VEG_0_4 - VEG_0_4 = 500
InterStorage_M2_T1: STORED_VEG_0_0 - STORED_VEG_1_0 - USED_VEG_1_0 + VEG_1_0
 = 0
InterStorage_M2_T2: STORED_VEG_0_1 - STORED_VEG_1_1 - USED_VEG_1_1 + VEG_1_1
 = 0
InterStorage_M2_T3: STORED_VEG_0_2 - STORED_VEG_1_2 - USED_VEG_1_2 + VEG_1_2
 = 0
InterStorage_M2_T4: STORED_VEG_0_3 - STORED_VEG_1_3 - USED_VEG_1_3 + VEG_1_3
 = 0
InterStorage_M2_T5: STORED_VEG_0_4 - STORED_VEG_1_4 - USED_VEG_1_4 + VEG_1_4
 = 0
InterStorage_M3_T1: STORED_VEG_1_0 - STORED_VEG_2_0 - USED_VEG_2_0 + VEG_2_0
 = 0
InterStorage_M3_T2: STORED_VEG_1_1 - STORED_VEG_2_1 - USED_VEG_2_1 + VEG_2_1
 = 0
InterStorage_M3_T3: STORED_VEG_1_2 - STORED_VEG_2_2 - USED_VEG_2_2 + VEG_2_2
 = 0
InterStorage_M3_T4: STORED_VEG_1_3 - STORED_VEG_2_3 - USED_VEG_2_3 + VEG_2_3
 = 0
InterStorage_M3_T5: STORED_VEG_1_4 - STORED_VEG_2_4 - USED_VEG_2_4 + VEG_2_4
 = 0
InterStorage_M4_T1: STORED_VEG_2_0 - STORED_VEG_3_0 - USED_VEG_3_0 + VEG_3_0
 = 0
InterStorage_M4_T2: STORED_VEG_2_1 - STORED_VEG_3_1 - USED_VEG_3_1 + VEG_3_1
 = 0
InterStorage_M4_T3: STORED_VEG_2_2 - STORED_VEG_3_2 - USED_VEG_3_2 + VEG_3_2
 = 0
InterStorage_M4_T4: STORED_VEG_2_3 - STORED_VEG_3_3 - USED_VEG_3_3 + VEG_3_3
 = 0
InterStorage_M4_T5: STORED_VEG_2_4 - STORED_VEG_3_4 - USED_VEG_3_4 + VEG_3_4
 = 0
InterStorage_M5_T1: STORED_VEG_3_0 - STORED_VEG_4_0 - USED_VEG_4_0 + VEG_4_0
 = 0
InterStorage_M5_T2: STORED_VEG_3_1 - STORED_VEG_4_1 - USED_VEG_4_1 + VEG_4_1
 = 0
InterStorage_M5_T3: STORED_VEG_3_2 - STORED_VEG_4_2 - USED_VEG_4_2 + VEG_4_2
 = 0
InterStorage_M5_T4: STORED_VEG_3_3 - STORED_VEG_4_3 - USED_VEG_4_3 + VEG_4_3
 = 0
InterStorage_M5_T5: STORED_VEG_3_4 - STORED_VEG_4_4 - USED_VEG_4_4 + VEG_4_4
 = 0
MaxStorage_M1_T1: STORED_VEG_0_0 <= 1000
MaxStorage_M1_T2: STORED_VEG_0_1 <= 1000
MaxStorage_M1_T3: STORED_VEG_0_2 <= 1000
MaxStorage_M1_T4: STORED_VEG_0_3 <= 1000
MaxStorage_M1_T5: STORED_VEG_0_4 <= 1000
MaxStorage_M2_T1: STORED_VEG_1_0 <= 1000
MaxStorage_M2_T2: STORED_VEG_1_1 <= 1000
MaxStorage_M2_T3: STORED_VEG_1_2 <= 1000
MaxStorage_M2_T4: STORED_VEG_1_3 <= 1000
MaxStorage_M2_T5: STORED_VEG_1_4 <= 1000
MaxStorage_M3_T1: STORED_VEG_2_0 <= 1000
MaxStorage_M3_T2: STORED_VEG_2_1 <= 1000
MaxStorage_M3_T3: STORED_VEG_2_2 <= 1000
MaxStorage_M3_T4: STORED_VEG_2_3 <= 1000
MaxStorage_M3_T5: STORED_VEG_2_4 <= 1000
MaxStorage_M4_T1: STORED_VEG_3_0 <= 1000
MaxStorage_M4_T2: STORED_VEG_3_1 <= 1000
MaxStorage_M4_T3: STORED_VEG_3_2 <= 1000
MaxStorage_M4_T4: STORED_VEG_3_3 <= 1000
MaxStorage_M4_T5: STORED_VEG_3_4 <= 1000
MaxStorage_M5_T1: STORED_VEG_4_0 <= 1000
MaxStorage_M5_T2: STORED_VEG_4_1 <= 1000
MaxStorage_M5_T3: STORED_VEG_4_2 <= 1000
MaxStorage_M5_T4: STORED_VEG_4_3 <= 1000
MaxStorage_M5_T5: STORED_VEG_4_4 <= 1000
End
